p cnf 64 96
1 0
-3 -2 0
-4 -2 0
-4 -3 0
2 3 4 0
-6 -4 0
-6 -5 0
-4 -8 -7 0
-4 -9 -7 0
-4 -9 -8 0
-4 7 8 9 0
4 -7 0
4 -8 0
4 -9 0
-11 -10 0
-12 -10 0
-12 -11 0
-13 -10 0
-13 -11 0
-13 -12 0
-14 -10 0
-14 -11 0
-14 -12 0
-14 -13 0
10 11 12 13 14 0
14 -16 -15 0
14 -17 -15 0
14 -17 -16 0
14 15 16 17 0
-14 -15 0
-14 -16 0
-14 -17 0
-14 -18 0
-14 -21 0
-14 -22 0
-4 -24 0
-25 4 0
-27 11 0
-28 13 0
-28 -19 0
-4 -29 0
-31 30 0
-32 30 0
-32 -4 0
-32 -4 0
-33 30 0
-33 -4 0
-33 32 0
-34 30 0
-34 -4 0
-34 33 0
-35 30 0
-36 30 0
-37 30 0
-37 -4 0
-38 30 0
-38 -4 0
-39 30 0
-40 30 0
-40 -4 0
-42 41 0
-43 41 0
-44 41 0
-45 41 0
-46 41 0
-46 -4 0
-48 47 0
-49 47 0
-49 42 0
-50 47 0
-50 43 0
-51 47 0
-51 44 0
-52 47 0
-52 45 0
-53 47 0
-53 46 0
14 -55 -54 0
14 -56 -54 0
14 -56 -55 0
14 54 55 56 0
-14 -54 0
-14 -55 0
-14 -56 0
-14 -57 0
-14 -58 0
-14 -59 0
-14 -60 0
-14 -61 0
14 -63 -62 0
14 -64 -62 0
14 -64 -63 0
14 62 63 64 0
-14 -62 0
-14 -63 0
-14 -64 0
